<number of tasks>
89

<cycle time>
127

<task times>
1 28
2 17
3 7
4 10
5 12
6 16
7 13
8 8
9 13
10 24
11 16
12 24
13 12
14 20
15 22
16 22
17 22
18 47
19 6
20 12
21 6
22 22
23 7
24 14
25 68
26 15
27 8
28 74
29 32
30 11
31 18
32 15
33 42
34 27
35 38
36 38
37 26
38 35
39 31
40 8
41 14
42 8
43 8
44 8
45 17
46 7
47 19
48 12
49 24
50 26
51 22
52 14
53 27
54 60
55 4
56 2
57 1
58 9
59 5
60 6
61 7
62 12
63 2
64 11
65 14
66 6
67 21
68 14
69 1
70 6
71 21
72 11
73 14
74 28
75 12
76 11
77 30
78 22
79 14
80 31
81 18
82 16
83 7
84 38
85 8
86 31
87 29
88 12
89 18

<precedence relations>
1,2
2,3
3,4
4,5
4,6
4,7
4,8
4,9
5,10
6,11
7,12
8,18
9,18
10,14
11,12
12,13
13,14
14,15
14,16
15,17
16,54
17,18
18,19
18,20
19,22
20,21
20,28
21,54
22,23
23,24
24,25
25,26
25,27
25,29
26,37
27,33
28,29
29,31
30,54
31,32
32,33
33,34
34,35
35,36
35,37
36,38
37,38
38,39
39,40
39,41
39,42
39,43
40,44
41,53
42,53
43,45
44,52
45,46
46,47
47,48
47,49
49,50
50,51
51,52
52,53
53,68
53,69
53,70
53,71
54,55
55,56
56,57
57,58
57,59
57,60
57,61
57,62
57,63
57,64
57,65
57,66
58,67
59,67
60,67
61,67
62,67
63,67
64,67
65,67
66,67
67,73
68,72
69,72
70,72
71,73
72,78
72,80
73,74
74,75
74,76
75,77
76,81
77,78
78,79
79,81
80,81
81,82
81,84
81,85
82,83
83,86
84,86
85,86
86,87
87,88
87,89

<setup times forward>
4,9:1
5,9:1
5,10:1
5,12:1
5,13:1
6,9:1
6,10:1
7,9:1
7,10:1
7,12:1
8,9:1
8,10:1
8,12:1
8,13:1
8,14:1
8,15:1
8,17:1
8,18:1
9,5:1
9,6:1
9,7:1
9,8:1
9,10:2
9,11:1
9,12:2
9,13:2
9,14:2
9,15:2
9,16:1
9,17:2
9,30:1
10,6:1
10,7:1
10,8:1
10,9:2
10,11:1
10,30:1
11,9:1
11,10:1
11,12:1
12,5:1
12,8:1
12,9:2
12,30:1
13,5:1
13,8:1
13,9:2
13,30:1
14,8:1
14,9:2
14,16:1
14,30:1
15,8:1
15,9:2
15,16:1
15,30:1
16,9:1
16,15:1
16,17:1
16,18:1
16,19:1
16,20:1
16,21:1
16,22:1
16,23:1
16,24:1
16,32:1
16,33:1
16,34:1
16,35:1
16,39:2
16,40:2
16,41:1
16,42:1
16,43:2
16,44:2
16,45:2
16,46:2
16,47:2
16,48:2
16,49:2
16,50:1
16,51:1
16,52:1
16,53:1
16,54:1
16,69:1
16,71:2
17,8:1
17,9:2
17,16:1
17,18:2
17,30:1
18,16:1
18,30:1
19,16:1
19,28:1
19,30:1
19,54:2
19,55:2
19,56:2
19,57:2
19,63:2
19,67:1
20,16:1
20,25:1
20,26:1
20,27:1
20,28:1
20,30:1
21,16:1
21,25:1
21,26:1
21,27:1
21,28:1
21,29:1
21,30:1
21,31:1
21,36:1
21,37:1
21,38:1
21,39:1
21,40:1
21,42:2
21,43:1
21,44:1
21,45:1
21,46:1
21,47:1
21,48:1
21,49:1
21,50:2
21,51:2
21,54:2
21,68:1
21,70:1
21,71:1
21,72:1
21,80:1
22,16:1
22,28:1
22,30:1
22,54:2
22,55:2
22,56:2
22,57:2
22,63:2
22,67:1
23,16:1
23,28:1
23,30:1
23,54:2
23,55:2
23,56:2
23,57:2
23,63:2
23,67:1
24,16:1
24,25:1
24,28:1
24,30:1
24,54:2
24,55:2
24,56:2
24,57:2
24,63:2
24,67:1
25,20:1
25,21:1
25,54:1
25,55:1
25,56:1
25,57:1
25,58:1
25,59:1
25,60:1
25,61:1
25,62:1
25,63:1
25,64:1
25,65:1
25,66:1
25,67:2
26,20:1
26,21:1
26,32:1
26,33:1
26,34:1
26,35:1
26,54:1
26,55:1
26,56:1
26,57:1
26,58:1
26,59:1
26,60:1
26,61:1
26,62:1
26,63:1
26,64:1
26,65:1
26,66:1
26,67:2
27,20:1
27,21:1
27,32:1
27,33:1
27,54:1
27,55:1
27,56:1
27,57:1
27,58:1
27,59:1
27,60:1
27,61:1
27,62:1
27,63:1
27,64:1
27,65:1
27,66:1
27,67:2
28,19:1
28,21:1
28,22:1
28,23:1
28,24:1
28,54:1
28,55:1
28,56:1
28,57:1
28,58:1
28,59:1
28,60:1
28,61:1
28,62:1
28,63:1
28,64:1
28,65:1
28,66:1
28,67:2
29,21:1
29,54:1
29,55:1
29,56:1
29,57:1
29,58:1
29,59:1
29,60:1
29,61:1
29,62:1
29,63:1
29,64:1
29,65:1
29,66:1
29,67:2
30,9:1
30,10:1
30,12:1
30,13:1
30,14:1
30,15:1
30,17:1
30,18:1
30,19:1
30,20:1
30,21:1
30,22:1
30,23:1
30,24:1
30,32:1
30,33:1
30,34:1
30,35:1
30,39:2
30,40:2
30,41:1
30,42:1
30,43:2
30,44:2
30,45:2
30,46:2
30,47:2
30,48:2
30,49:2
30,50:1
30,51:1
30,52:1
30,53:1
30,54:1
30,69:1
30,71:2
31,21:1
31,32:1
31,54:1
31,55:1
31,56:1
31,57:1
31,58:1
31,59:1
31,60:1
31,61:1
31,62:1
31,63:1
31,64:1
31,65:1
31,66:1
31,67:2
32,16:1
32,26:1
32,27:1
32,30:1
32,54:2
32,55:2
32,56:2
32,57:2
32,63:2
32,67:1
33,16:1
33,26:1
33,30:1
33,54:2
33,55:2
33,56:2
33,57:2
33,63:2
33,67:1
34,16:1
34,26:1
34,30:1
34,54:2
34,55:2
34,56:2
34,57:2
34,63:2
34,67:1
35,16:1
35,26:1
35,30:1
35,36:1
35,37:1
35,54:2
35,55:2
35,56:2
35,57:2
35,63:2
35,67:1
36,21:1
36,54:1
36,55:1
36,56:1
36,57:1
36,58:1
36,59:1
36,60:1
36,61:1
36,62:1
36,63:1
36,64:1
36,65:1
36,66:1
36,67:2
37,21:1
37,54:1
37,55:1
37,56:1
37,57:1
37,58:1
37,59:1
37,60:1
37,61:1
37,62:1
37,63:1
37,64:1
37,65:1
37,66:1
37,67:2
38,21:1
38,39:2
38,54:1
38,55:1
38,56:1
38,57:1
38,58:1
38,59:1
38,60:1
38,61:1
38,62:1
38,63:1
38,64:1
38,65:1
38,66:1
38,67:2
39,16:2
39,21:1
39,30:2
39,41:1
39,42:3
39,54:3
39,55:3
39,56:3
39,57:3
39,58:1
39,59:1
39,60:1
39,61:1
39,62:1
39,63:3
39,64:1
39,65:1
39,66:1
40,16:2
40,21:1
40,30:2
40,41:1
40,42:3
40,50:3
40,51:3
40,54:3
40,55:3
40,56:3
40,57:3
40,58:1
40,59:1
40,60:1
40,61:1
40,62:1
40,63:3
40,64:1
40,65:1
40,66:1
41,16:1
41,30:1
41,40:1
41,42:2
41,43:1
41,44:1
41,45:1
41,46:1
41,47:1
41,48:1
41,49:1
41,50:2
41,51:2
41,54:2
41,55:2
41,56:2
41,57:2
41,63:2
41,67:1
42,16:1
42,21:2
42,30:1
42,40:3
42,41:2
42,43:3
42,44:3
42,45:3
42,46:3
42,47:3
42,48:3
42,49:3
42,52:2
42,53:2
42,58:2
42,59:2
42,60:2
42,61:2
42,62:2
42,64:2
42,65:2
42,66:2
42,67:3
43,16:2
43,21:1
43,30:2
43,41:1
43,42:3
43,54:3
43,55:3
43,56:3
43,57:3
43,58:1
43,59:1
43,60:1
43,61:1
43,62:1
43,63:3
43,64:1
43,65:1
43,66:1
44,16:2
44,21:1
44,30:2
44,41:1
44,42:3
44,50:3
44,51:3
44,52:1
44,54:3
44,55:3
44,56:3
44,57:3
44,58:1
44,59:1
44,60:1
44,61:1
44,62:1
44,63:3
44,64:1
44,65:1
44,66:1
45,16:2
45,21:1
45,30:2
45,41:1
45,42:3
45,54:3
45,55:3
45,56:3
45,57:3
45,58:1
45,59:1
45,60:1
45,61:1
45,62:1
45,63:3
45,64:1
45,65:1
45,66:1
46,16:2
46,21:1
46,30:2
46,41:1
46,42:3
46,54:3
46,55:3
46,56:3
46,57:3
46,58:1
46,59:1
46,60:1
46,61:1
46,62:1
46,63:3
46,64:1
46,65:1
46,66:1
47,16:2
47,21:1
47,30:2
47,41:1
47,42:3
47,54:3
47,55:3
47,56:3
47,57:3
47,58:1
47,59:1
47,60:1
47,61:1
47,62:1
47,63:3
47,64:1
47,65:1
47,66:1
48,16:2
48,21:1
48,30:2
48,41:1
48,42:3
48,50:3
48,51:3
48,52:1
48,53:1
48,54:3
48,55:3
48,56:3
48,57:3
48,58:1
48,59:1
48,60:1
48,61:1
48,62:1
48,63:3
48,64:1
48,65:1
48,66:1
48,68:2
48,69:1
48,70:2
48,72:2
48,73:2
48,74:2
48,75:2
48,76:2
48,77:2
48,78:2
48,79:2
48,80:2
48,81:2
48,82:3
48,83:3
48,84:2
48,85:3
48,86:3
48,87:3
48,88:3
48,89:3
49,16:2
49,21:1
49,30:2
49,41:1
49,42:3
49,50:3
49,54:3
49,55:3
49,56:3
49,57:3
49,58:1
49,59:1
49,60:1
49,61:1
49,62:1
49,63:3
49,64:1
49,65:1
49,66:1
50,16:1
50,21:2
50,30:1
50,40:3
50,41:2
50,44:3
50,48:3
50,58:2
50,59:2
50,60:2
50,61:2
50,62:2
50,64:2
50,65:2
50,66:2
50,67:3
51,16:1
51,21:2
51,30:1
51,40:3
51,41:2
51,44:3
51,48:3
51,52:2
51,58:2
51,59:2
51,60:2
51,61:2
51,62:2
51,64:2
51,65:2
51,66:2
51,67:3
52,16:1
52,30:1
52,42:2
52,48:1
52,54:2
52,55:2
52,56:2
52,57:2
52,63:2
52,67:1
53,16:1
53,30:1
53,48:1
53,54:2
53,55:2
53,56:2
53,57:2
53,63:2
53,67:1
53,68:1
53,70:1
53,71:1
54,19:2
54,22:2
54,23:2
54,24:2
54,25:1
54,26:1
54,27:1
54,28:1
54,29:1
54,31:1
54,32:2
54,33:2
54,34:2
54,35:2
54,36:1
54,37:1
54,38:1
54,39:3
54,40:3
54,41:2
54,43:3
54,44:3
54,45:3
54,46:3
54,47:3
54,48:3
54,49:3
54,52:2
54,53:2
54,68:1
54,69:2
54,70:1
54,71:3
54,72:1
54,80:1
55,19:2
55,22:2
55,23:2
55,24:2
55,25:1
55,26:1
55,27:1
55,28:1
55,29:1
55,31:1
55,32:2
55,33:2
55,34:2
55,35:2
55,36:1
55,37:1
55,38:1
55,39:3
55,40:3
55,41:2
55,43:3
55,44:3
55,45:3
55,46:3
55,47:3
55,48:3
55,49:3
55,52:2
55,53:2
55,68:1
55,69:2
55,70:1
55,71:3
55,72:1
55,80:1
56,19:2
56,22:2
56,23:2
56,24:2
56,25:1
56,26:1
56,27:1
56,28:1
56,29:1
56,31:1
56,32:2
56,33:2
56,34:2
56,35:2
56,36:1
56,37:1
56,38:1
56,39:3
56,40:3
56,41:2
56,43:3
56,44:3
56,45:3
56,46:3
56,47:3
56,48:3
56,49:3
56,52:2
56,53:2
56,68:1
56,69:2
56,70:1
56,71:3
56,72:1
56,80:1
57,19:2
57,22:2
57,23:2
57,24:2
57,25:1
57,26:1
57,27:1
57,28:1
57,29:1
57,31:1
57,32:2
57,33:2
57,34:2
57,35:2
57,36:1
57,37:1
57,38:1
57,39:3
57,40:3
57,41:2
57,43:3
57,44:3
57,45:3
57,46:3
57,47:3
57,48:3
57,49:3
57,52:2
57,53:2
57,58:2
57,59:2
57,60:2
57,61:2
57,62:2
57,64:2
57,65:2
57,66:2
57,68:1
57,69:2
57,70:1
57,71:3
57,72:1
57,80:1
58,25:1
58,26:1
58,27:1
58,28:1
58,29:1
58,31:1
58,36:1
58,37:1
58,38:1
58,39:1
58,40:1
58,42:2
58,43:1
58,44:1
58,45:1
58,46:1
58,47:1
58,48:1
58,49:1
58,50:2
58,51:2
58,63:2
58,67:1
58,68:1
58,70:1
58,71:1
58,72:1
58,80:1
59,25:1
59,26:1
59,27:1
59,28:1
59,29:1
59,31:1
59,36:1
59,37:1
59,38:1
59,39:1
59,40:1
59,42:2
59,43:1
59,44:1
59,45:1
59,46:1
59,47:1
59,48:1
59,49:1
59,50:2
59,51:2
59,63:2
59,67:1
59,68:1
59,70:1
59,71:1
59,72:1
59,80:1
60,25:1
60,26:1
60,27:1
60,28:1
60,29:1
60,31:1
60,36:1
60,37:1
60,38:1
60,39:1
60,40:1
60,42:2
60,43:1
60,44:1
60,45:1
60,46:1
60,47:1
60,48:1
60,49:1
60,50:2
60,51:2
60,63:2
60,67:1
60,68:1
60,70:1
60,71:1
60,72:1
60,80:1
61,25:1
61,26:1
61,27:1
61,28:1
61,29:1
61,31:1
61,36:1
61,37:1
61,38:1
61,39:1
61,40:1
61,42:2
61,43:1
61,44:1
61,45:1
61,46:1
61,47:1
61,48:1
61,49:1
61,50:2
61,51:2
61,63:2
61,67:1
61,68:1
61,70:1
61,71:1
61,72:1
61,80:1
62,25:1
62,26:1
62,27:1
62,28:1
62,29:1
62,31:1
62,36:1
62,37:1
62,38:1
62,39:1
62,40:1
62,42:2
62,43:1
62,44:1
62,45:1
62,46:1
62,47:1
62,48:1
62,49:1
62,50:2
62,51:2
62,63:2
62,67:1
62,68:1
62,70:1
62,71:1
62,72:1
62,80:1
63,19:2
63,22:2
63,23:2
63,24:2
63,25:1
63,26:1
63,27:1
63,28:1
63,29:1
63,31:1
63,32:2
63,33:2
63,34:2
63,35:2
63,36:1
63,37:1
63,38:1
63,39:3
63,40:3
63,41:2
63,43:3
63,44:3
63,45:3
63,46:3
63,47:3
63,48:3
63,49:3
63,52:2
63,53:2
63,58:2
63,59:2
63,60:2
63,61:2
63,62:2
63,64:2
63,65:2
63,66:2
63,67:3
63,68:1
63,69:2
63,70:1
63,71:3
63,72:1
63,80:1
64,25:1
64,26:1
64,27:1
64,28:1
64,29:1
64,31:1
64,36:1
64,37:1
64,38:1
64,39:1
64,40:1
64,42:2
64,43:1
64,44:1
64,45:1
64,46:1
64,47:1
64,48:1
64,49:1
64,50:2
64,51:2
64,63:2
64,67:1
64,68:1
64,70:1
64,71:1
64,72:1
64,80:1
65,25:1
65,26:1
65,27:1
65,28:1
65,29:1
65,31:1
65,36:1
65,37:1
65,38:1
65,39:1
65,40:1
65,42:2
65,43:1
65,44:1
65,45:1
65,46:1
65,47:1
65,48:1
65,49:1
65,50:2
65,51:2
65,63:2
65,67:1
65,68:1
65,70:1
65,71:1
65,72:1
65,80:1
66,25:1
66,26:1
66,27:1
66,28:1
66,29:1
66,31:1
66,36:1
66,37:1
66,38:1
66,39:1
66,40:1
66,42:2
66,43:1
66,44:1
66,45:1
66,46:1
66,47:1
66,48:1
66,49:1
66,50:2
66,51:2
66,63:2
66,67:1
66,68:1
66,70:1
66,71:1
66,72:1
66,80:1
67,19:1
67,22:1
67,23:1
67,24:1
67,25:2
67,26:2
67,27:2
67,28:2
67,29:2
67,31:2
67,32:1
67,33:1
67,34:1
67,35:1
67,36:2
67,37:2
67,38:2
67,41:1
67,42:3
67,50:3
67,51:3
67,52:1
67,53:1
67,68:2
67,69:1
67,70:2
67,72:2
67,73:2
67,80:2
68,21:1
68,48:2
68,54:1
68,55:1
68,56:1
68,57:1
68,58:1
68,59:1
68,60:1
68,61:1
68,62:1
68,63:1
68,64:1
68,65:1
68,66:1
68,67:2
68,69:1
68,71:2
69,16:1
69,30:1
69,48:1
69,54:2
69,55:2
69,56:2
69,57:2
69,63:2
69,67:1
69,68:1
69,70:1
69,71:1
69,72:1
69,73:1
69,74:1
69,75:1
69,76:1
69,77:1
70,21:1
70,48:2
70,54:1
70,55:1
70,56:1
70,57:1
70,58:1
70,59:1
70,60:1
70,61:1
70,62:1
70,63:1
70,64:1
70,65:1
70,66:1
70,67:2
70,69:1
70,71:2
71,16:2
71,21:1
71,30:2
71,54:3
71,55:3
71,56:3
71,57:3
71,58:1
71,59:1
71,60:1
71,61:1
71,62:1
71,63:3
71,64:1
71,65:1
71,66:1
71,68:2
71,69:1
71,70:2
71,72:2
71,73:2
71,80:2
72,21:1
72,48:2
72,54:1
72,55:1
72,56:1
72,57:1
72,58:1
72,59:1
72,60:1
72,61:1
72,62:1
72,63:1
72,64:1
72,65:1
72,66:1
72,67:2
72,71:2
73,48:2
73,69:1
74,48:2
74,69:1
75,48:2
75,69:1
76,48:2
76,69:1
77,48:2
77,69:1
78,48:2
79,48:2
80,21:1
80,48:2
80,54:1
80,55:1
80,56:1
80,57:1
80,58:1
80,59:1
80,60:1
80,61:1
80,62:1
80,63:1
80,64:1
80,65:1
80,66:1
80,67:2
80,71:2
81,48:2
81,82:1
81,85:1
82,48:3
82,84:1
83,48:3
83,84:1
84,48:2
84,82:1
84,83:1
84,85:1
84,86:1
85,48:3
85,84:1
86,48:3
87,48:3
88,48:3
89,48:3

<setup times backward>
5,9:1
6,9:1
7,9:1
8,9:1
10,1:1
10,2:1
10,3:1
10,4:1
10,5:1
10,6:1
10,7:1
10,8:1
10,9:2
10,11:1
10,30:1
11,9:1
12,1:1
12,2:1
12,3:1
12,4:1
12,5:1
12,6:1
12,7:1
12,8:1
12,9:2
12,11:1
12,30:1
13,1:1
13,2:1
13,3:1
13,4:1
13,5:1
13,6:1
13,7:1
13,8:1
13,9:2
13,11:1
13,30:1
14,1:1
14,2:1
14,3:1
14,4:1
14,5:1
14,6:1
14,7:1
14,8:1
14,9:2
14,11:1
14,30:1
15,1:1
15,2:1
15,3:1
15,4:1
15,5:1
15,6:1
15,7:1
15,8:1
15,9:2
15,11:1
15,16:1
15,30:1
16,9:1
16,18:1
16,19:1
16,20:1
16,21:1
16,22:1
16,23:1
16,24:1
16,32:1
16,33:1
16,34:1
16,35:1
16,39:2
16,40:2
16,41:1
16,43:2
16,44:2
16,45:2
16,46:2
16,47:2
16,48:2
16,49:2
16,52:1
16,53:1
16,69:1
16,71:2
17,1:1
17,2:1
17,3:1
17,4:1
17,5:1
17,6:1
17,7:1
17,8:1
17,9:2
17,11:1
17,16:1
17,30:1
19,67:1
21,39:1
21,40:1
21,43:1
21,44:1
21,45:1
21,46:1
21,47:1
21,48:1
21,49:1
21,71:1
22,67:1
23,67:1
24,67:1
25,9:1
25,18:1
25,19:1
25,20:1
25,21:1
25,22:1
25,23:1
25,24:1
25,58:1
25,59:1
25,60:1
25,61:1
25,62:1
25,64:1
25,65:1
25,66:1
25,67:2
26,9:1
26,18:1
26,19:1
26,20:1
26,21:1
26,22:1
26,23:1
26,24:1
26,32:1
26,33:1
26,34:1
26,35:1
26,58:1
26,59:1
26,60:1
26,61:1
26,62:1
26,64:1
26,65:1
26,66:1
26,67:2
27,9:1
27,18:1
27,19:1
27,20:1
27,21:1
27,22:1
27,23:1
27,24:1
27,32:1
27,58:1
27,59:1
27,60:1
27,61:1
27,62:1
27,64:1
27,65:1
27,66:1
27,67:2
28,9:1
28,18:1
28,19:1
28,20:1
28,21:1
28,22:1
28,23:1
28,24:1
28,58:1
28,59:1
28,60:1
28,61:1
28,62:1
28,64:1
28,65:1
28,66:1
28,67:2
29,9:1
29,18:1
29,19:1
29,20:1
29,21:1
29,22:1
29,23:1
29,24:1
29,58:1
29,59:1
29,60:1
29,61:1
29,62:1
29,64:1
29,65:1
29,66:1
29,67:2
30,9:1
30,18:1
30,19:1
30,20:1
30,21:1
30,22:1
30,23:1
30,24:1
30,32:1
30,33:1
30,34:1
30,35:1
30,39:2
30,40:2
30,41:1
30,43:2
30,44:2
30,45:2
30,46:2
30,47:2
30,48:2
30,49:2
30,52:1
30,53:1
30,69:1
30,71:2
31,9:1
31,18:1
31,19:1
31,20:1
31,21:1
31,22:1
31,23:1
31,24:1
31,58:1
31,59:1
31,60:1
31,61:1
31,62:1
31,64:1
31,65:1
31,66:1
31,67:2
32,67:1
33,67:1
34,67:1
35,67:1
36,9:1
36,18:1
36,19:1
36,20:1
36,21:1
36,22:1
36,23:1
36,24:1
36,32:1
36,33:1
36,34:1
36,35:1
36,58:1
36,59:1
36,60:1
36,61:1
36,62:1
36,64:1
36,65:1
36,66:1
36,67:2
37,9:1
37,18:1
37,19:1
37,20:1
37,21:1
37,22:1
37,23:1
37,24:1
37,32:1
37,33:1
37,34:1
37,35:1
37,58:1
37,59:1
37,60:1
37,61:1
37,62:1
37,64:1
37,65:1
37,66:1
37,67:2
38,9:1
38,18:1
38,19:1
38,20:1
38,21:1
38,22:1
38,23:1
38,24:1
38,32:1
38,33:1
38,34:1
38,35:1
38,58:1
38,59:1
38,60:1
38,61:1
38,62:1
38,64:1
38,65:1
38,66:1
38,67:2
41,39:1
41,40:1
41,43:1
41,44:1
41,45:1
41,46:1
41,47:1
41,48:1
41,49:1
41,67:1
42,1:1
42,2:1
42,3:1
42,4:1
42,5:1
42,6:1
42,7:1
42,8:1
42,9:2
42,11:1
42,16:1
42,18:2
42,19:2
42,20:2
42,21:2
42,22:2
42,23:2
42,24:2
42,25:1
42,26:1
42,27:1
42,28:1
42,29:1
42,30:1
42,31:1
42,32:2
42,33:2
42,34:2
42,35:2
42,36:1
42,37:1
42,38:1
42,39:3
42,40:3
42,41:2
42,43:3
42,44:3
42,45:3
42,46:3
42,47:3
42,48:3
42,49:3
42,52:2
42,58:2
42,59:2
42,60:2
42,61:2
42,62:2
42,64:2
42,65:2
42,66:2
42,67:3
50,1:1
50,2:1
50,3:1
50,4:1
50,5:1
50,6:1
50,7:1
50,8:1
50,9:2
50,11:1
50,16:1
50,18:2
50,19:2
50,20:2
50,21:2
50,22:2
50,23:2
50,24:2
50,25:1
50,26:1
50,27:1
50,28:1
50,29:1
50,30:1
50,31:1
50,32:2
50,33:2
50,34:2
50,35:2
50,36:1
50,37:1
50,38:1
50,39:3
50,40:3
50,41:2
50,43:3
50,44:3
50,45:3
50,46:3
50,47:3
50,48:3
50,49:3
50,58:2
50,59:2
50,60:2
50,61:2
50,62:2
50,64:2
50,65:2
50,66:2
50,67:3
51,1:1
51,2:1
51,3:1
51,4:1
51,5:1
51,6:1
51,7:1
51,8:1
51,9:2
51,11:1
51,16:1
51,18:2
51,19:2
51,20:2
51,21:2
51,22:2
51,23:2
51,24:2
51,25:1
51,26:1
51,27:1
51,28:1
51,29:1
51,30:1
51,31:1
51,32:2
51,33:2
51,34:2
51,35:2
51,36:1
51,37:1
51,38:1
51,39:3
51,40:3
51,41:2
51,43:3
51,44:3
51,45:3
51,46:3
51,47:3
51,48:3
51,49:3
51,58:2
51,59:2
51,60:2
51,61:2
51,62:2
51,64:2
51,65:2
51,66:2
51,67:3
52,39:1
52,40:1
52,43:1
52,44:1
52,45:1
52,46:1
52,47:1
52,48:1
52,49:1
52,67:1
53,39:1
53,40:1
53,43:1
53,44:1
53,45:1
53,46:1
53,47:1
53,48:1
53,49:1
53,67:1
54,1:1
54,2:1
54,3:1
54,4:1
54,5:1
54,6:1
54,7:1
54,8:1
54,9:2
54,11:1
54,16:1
54,18:2
54,19:2
54,20:2
54,21:2
54,22:2
54,23:2
54,24:2
54,25:1
54,26:1
54,27:1
54,28:1
54,29:1
54,30:1
54,31:1
54,32:2
54,33:2
54,34:2
54,35:2
54,36:1
54,37:1
54,38:1
54,39:3
54,40:3
54,41:2
54,43:3
54,44:3
54,45:3
54,46:3
54,47:3
54,48:3
54,49:3
54,52:2
54,53:2
54,68:1
54,69:2
54,70:1
54,71:3
54,72:1
54,80:1
55,1:1
55,2:1
55,3:1
55,4:1
55,5:1
55,6:1
55,7:1
55,8:1
55,9:2
55,11:1
55,16:1
55,18:2
55,19:2
55,20:2
55,21:2
55,22:2
55,23:2
55,24:2
55,25:1
55,26:1
55,27:1
55,28:1
55,29:1
55,30:1
55,31:1
55,32:2
55,33:2
55,34:2
55,35:2
55,36:1
55,37:1
55,38:1
55,39:3
55,40:3
55,41:2
55,43:3
55,44:3
55,45:3
55,46:3
55,47:3
55,48:3
55,49:3
55,52:2
55,53:2
55,68:1
55,69:2
55,70:1
55,71:3
55,72:1
55,80:1
56,1:1
56,2:1
56,3:1
56,4:1
56,5:1
56,6:1
56,7:1
56,8:1
56,9:2
56,11:1
56,16:1
56,18:2
56,19:2
56,20:2
56,21:2
56,22:2
56,23:2
56,24:2
56,25:1
56,26:1
56,27:1
56,28:1
56,29:1
56,30:1
56,31:1
56,32:2
56,33:2
56,34:2
56,35:2
56,36:1
56,37:1
56,38:1
56,39:3
56,40:3
56,41:2
56,43:3
56,44:3
56,45:3
56,46:3
56,47:3
56,48:3
56,49:3
56,52:2
56,53:2
56,68:1
56,69:2
56,70:1
56,71:3
56,72:1
56,80:1
57,1:1
57,2:1
57,3:1
57,4:1
57,5:1
57,6:1
57,7:1
57,8:1
57,9:2
57,11:1
57,16:1
57,18:2
57,19:2
57,20:2
57,21:2
57,22:2
57,23:2
57,24:2
57,25:1
57,26:1
57,27:1
57,28:1
57,29:1
57,30:1
57,31:1
57,32:2
57,33:2
57,34:2
57,35:2
57,36:1
57,37:1
57,38:1
57,39:3
57,40:3
57,41:2
57,43:3
57,44:3
57,45:3
57,46:3
57,47:3
57,48:3
57,49:3
57,52:2
57,53:2
57,68:1
57,69:2
57,70:1
57,71:3
57,72:1
57,80:1
58,39:1
58,40:1
58,43:1
58,44:1
58,45:1
58,46:1
58,47:1
58,48:1
58,49:1
58,71:1
59,39:1
59,40:1
59,43:1
59,44:1
59,45:1
59,46:1
59,47:1
59,48:1
59,49:1
59,71:1
60,39:1
60,40:1
60,43:1
60,44:1
60,45:1
60,46:1
60,47:1
60,48:1
60,49:1
60,71:1
61,39:1
61,40:1
61,43:1
61,44:1
61,45:1
61,46:1
61,47:1
61,48:1
61,49:1
61,71:1
62,39:1
62,40:1
62,43:1
62,44:1
62,45:1
62,46:1
62,47:1
62,48:1
62,49:1
62,71:1
63,1:1
63,2:1
63,3:1
63,4:1
63,5:1
63,6:1
63,7:1
63,8:1
63,9:2
63,11:1
63,16:1
63,18:2
63,19:2
63,20:2
63,21:2
63,22:2
63,23:2
63,24:2
63,25:1
63,26:1
63,27:1
63,28:1
63,29:1
63,30:1
63,31:1
63,32:2
63,33:2
63,34:2
63,35:2
63,36:1
63,37:1
63,38:1
63,39:3
63,40:3
63,41:2
63,43:3
63,44:3
63,45:3
63,46:3
63,47:3
63,48:3
63,49:3
63,52:2
63,53:2
63,58:2
63,59:2
63,60:2
63,61:2
63,62:2
63,64:2
63,65:2
63,66:2
63,68:1
63,69:2
63,70:1
63,71:3
63,72:1
63,80:1
64,39:1
64,40:1
64,43:1
64,44:1
64,45:1
64,46:1
64,47:1
64,48:1
64,49:1
64,71:1
65,39:1
65,40:1
65,43:1
65,44:1
65,45:1
65,46:1
65,47:1
65,48:1
65,49:1
65,71:1
66,39:1
66,40:1
66,43:1
66,44:1
66,45:1
66,46:1
66,47:1
66,48:1
66,49:1
66,71:1
68,9:1
68,18:1
68,19:1
68,20:1
68,21:1
68,22:1
68,23:1
68,24:1
68,32:1
68,33:1
68,34:1
68,35:1
68,39:2
68,40:2
68,41:1
68,43:2
68,44:2
68,45:2
68,46:2
68,47:2
68,48:2
68,49:2
68,52:1
68,53:1
68,58:1
68,59:1
68,60:1
68,61:1
68,62:1
68,64:1
68,65:1
68,66:1
68,67:2
68,69:1
68,71:2
69,39:1
69,40:1
69,43:1
69,44:1
69,45:1
69,46:1
69,47:1
69,48:1
69,49:1
69,67:1
69,71:1
70,9:1
70,18:1
70,19:1
70,20:1
70,21:1
70,22:1
70,23:1
70,24:1
70,32:1
70,33:1
70,34:1
70,35:1
70,39:2
70,40:2
70,41:1
70,43:2
70,44:2
70,45:2
70,46:2
70,47:2
70,48:2
70,49:2
70,52:1
70,53:1
70,58:1
70,59:1
70,60:1
70,61:1
70,62:1
70,64:1
70,65:1
70,66:1
70,67:2
70,69:1
70,71:2
72,9:1
72,18:1
72,19:1
72,20:1
72,21:1
72,22:1
72,23:1
72,24:1
72,32:1
72,33:1
72,34:1
72,35:1
72,39:2
72,40:2
72,41:1
72,43:2
72,44:2
72,45:2
72,46:2
72,47:2
72,48:2
72,49:2
72,52:1
72,53:1
72,58:1
72,59:1
72,60:1
72,61:1
72,62:1
72,64:1
72,65:1
72,66:1
72,67:2
72,69:1
72,71:2
73,9:1
73,18:1
73,19:1
73,20:1
73,21:1
73,22:1
73,23:1
73,24:1
73,32:1
73,33:1
73,34:1
73,35:1
73,39:2
73,40:2
73,41:1
73,43:2
73,44:2
73,45:2
73,46:2
73,47:2
73,48:2
73,49:2
73,52:1
73,53:1
73,58:1
73,59:1
73,60:1
73,61:1
73,62:1
73,64:1
73,65:1
73,66:1
73,67:2
73,69:1
73,71:2
74,9:1
74,18:1
74,19:1
74,20:1
74,21:1
74,22:1
74,23:1
74,24:1
74,32:1
74,33:1
74,34:1
74,35:1
74,39:2
74,40:2
74,41:1
74,43:2
74,44:2
74,45:2
74,46:2
74,47:2
74,48:2
74,49:2
74,52:1
74,53:1
74,58:1
74,59:1
74,60:1
74,61:1
74,62:1
74,64:1
74,65:1
74,66:1
74,67:2
74,69:1
74,71:2
75,9:1
75,18:1
75,19:1
75,20:1
75,21:1
75,22:1
75,23:1
75,24:1
75,32:1
75,33:1
75,34:1
75,35:1
75,39:2
75,40:2
75,41:1
75,43:2
75,44:2
75,45:2
75,46:2
75,47:2
75,48:2
75,49:2
75,52:1
75,53:1
75,58:1
75,59:1
75,60:1
75,61:1
75,62:1
75,64:1
75,65:1
75,66:1
75,67:2
75,69:1
75,71:2
76,9:1
76,18:1
76,19:1
76,20:1
76,21:1
76,22:1
76,23:1
76,24:1
76,32:1
76,33:1
76,34:1
76,35:1
76,39:2
76,40:2
76,41:1
76,43:2
76,44:2
76,45:2
76,46:2
76,47:2
76,48:2
76,49:2
76,52:1
76,53:1
76,58:1
76,59:1
76,60:1
76,61:1
76,62:1
76,64:1
76,65:1
76,66:1
76,67:2
76,69:1
76,71:2
77,9:1
77,18:1
77,19:1
77,20:1
77,21:1
77,22:1
77,23:1
77,24:1
77,32:1
77,33:1
77,34:1
77,35:1
77,39:2
77,40:2
77,41:1
77,43:2
77,44:2
77,45:2
77,46:2
77,47:2
77,48:2
77,49:2
77,52:1
77,53:1
77,58:1
77,59:1
77,60:1
77,61:1
77,62:1
77,64:1
77,65:1
77,66:1
77,67:2
77,69:1
77,71:2
78,9:1
78,18:1
78,19:1
78,20:1
78,21:1
78,22:1
78,23:1
78,24:1
78,32:1
78,33:1
78,34:1
78,35:1
78,39:2
78,40:2
78,41:1
78,43:2
78,44:2
78,45:2
78,46:2
78,47:2
78,48:2
78,49:2
78,52:1
78,53:1
78,58:1
78,59:1
78,60:1
78,61:1
78,62:1
78,64:1
78,65:1
78,66:1
78,67:2
78,69:1
78,71:2
79,9:1
79,18:1
79,19:1
79,20:1
79,21:1
79,22:1
79,23:1
79,24:1
79,32:1
79,33:1
79,34:1
79,35:1
79,39:2
79,40:2
79,41:1
79,43:2
79,44:2
79,45:2
79,46:2
79,47:2
79,48:2
79,49:2
79,52:1
79,53:1
79,58:1
79,59:1
79,60:1
79,61:1
79,62:1
79,64:1
79,65:1
79,66:1
79,67:2
79,69:1
79,71:2
80,9:1
80,18:1
80,19:1
80,20:1
80,21:1
80,22:1
80,23:1
80,24:1
80,32:1
80,33:1
80,34:1
80,35:1
80,39:2
80,40:2
80,41:1
80,43:2
80,44:2
80,45:2
80,46:2
80,47:2
80,48:2
80,49:2
80,52:1
80,53:1
80,58:1
80,59:1
80,60:1
80,61:1
80,62:1
80,64:1
80,65:1
80,66:1
80,67:2
80,69:1
80,71:2
81,9:1
81,18:1
81,19:1
81,20:1
81,21:1
81,22:1
81,23:1
81,24:1
81,32:1
81,33:1
81,34:1
81,35:1
81,39:2
81,40:2
81,41:1
81,43:2
81,44:2
81,45:2
81,46:2
81,47:2
81,48:2
81,49:2
81,52:1
81,53:1
81,58:1
81,59:1
81,60:1
81,61:1
81,62:1
81,64:1
81,65:1
81,66:1
81,67:2
81,69:1
81,71:2
82,1:1
82,2:1
82,3:1
82,4:1
82,5:1
82,6:1
82,7:1
82,8:1
82,9:2
82,11:1
82,16:1
82,18:2
82,19:2
82,20:2
82,21:2
82,22:2
82,23:2
82,24:2
82,25:1
82,26:1
82,27:1
82,28:1
82,29:1
82,30:1
82,31:1
82,32:2
82,33:2
82,34:2
82,35:2
82,36:1
82,37:1
82,38:1
82,39:3
82,40:3
82,41:2
82,43:3
82,44:3
82,45:3
82,46:3
82,47:3
82,48:3
82,49:3
82,52:2
82,53:2
82,58:2
82,59:2
82,60:2
82,61:2
82,62:2
82,64:2
82,65:2
82,66:2
82,67:3
82,68:1
82,69:2
82,70:1
82,71:3
82,72:1
82,73:1
82,74:1
82,75:1
82,76:1
82,77:1
82,78:1
82,79:1
82,80:1
82,81:1
82,84:1
83,1:1
83,2:1
83,3:1
83,4:1
83,5:1
83,6:1
83,7:1
83,8:1
83,9:2
83,11:1
83,16:1
83,18:2
83,19:2
83,20:2
83,21:2
83,22:2
83,23:2
83,24:2
83,25:1
83,26:1
83,27:1
83,28:1
83,29:1
83,30:1
83,31:1
83,32:2
83,33:2
83,34:2
83,35:2
83,36:1
83,37:1
83,38:1
83,39:3
83,40:3
83,41:2
83,43:3
83,44:3
83,45:3
83,46:3
83,47:3
83,48:3
83,49:3
83,52:2
83,53:2
83,58:2
83,59:2
83,60:2
83,61:2
83,62:2
83,64:2
83,65:2
83,66:2
83,67:3
83,68:1
83,69:2
83,70:1
83,71:3
83,72:1
83,73:1
83,74:1
83,75:1
83,76:1
83,77:1
83,78:1
83,79:1
83,80:1
83,81:1
83,84:1
84,9:1
84,18:1
84,19:1
84,20:1
84,21:1
84,22:1
84,23:1
84,24:1
84,32:1
84,33:1
84,34:1
84,35:1
84,39:2
84,40:2
84,41:1
84,43:2
84,44:2
84,45:2
84,46:2
84,47:2
84,48:2
84,49:2
84,52:1
84,53:1
84,58:1
84,59:1
84,60:1
84,61:1
84,62:1
84,64:1
84,65:1
84,66:1
84,67:2
84,69:1
84,71:2
85,1:1
85,2:1
85,3:1
85,4:1
85,5:1
85,6:1
85,7:1
85,8:1
85,9:2
85,11:1
85,16:1
85,18:2
85,19:2
85,20:2
85,21:2
85,22:2
85,23:2
85,24:2
85,25:1
85,26:1
85,27:1
85,28:1
85,29:1
85,30:1
85,31:1
85,32:2
85,33:2
85,34:2
85,35:2
85,36:1
85,37:1
85,38:1
85,39:3
85,40:3
85,41:2
85,43:3
85,44:3
85,45:3
85,46:3
85,47:3
85,48:3
85,49:3
85,52:2
85,53:2
85,58:2
85,59:2
85,60:2
85,61:2
85,62:2
85,64:2
85,65:2
85,66:2
85,67:3
85,68:1
85,69:2
85,70:1
85,71:3
85,72:1
85,73:1
85,74:1
85,75:1
85,76:1
85,77:1
85,78:1
85,79:1
85,80:1
85,81:1
85,84:1
86,1:1
86,2:1
86,3:1
86,4:1
86,5:1
86,6:1
86,7:1
86,8:1
86,9:2
86,11:1
86,16:1
86,18:2
86,19:2
86,20:2
86,21:2
86,22:2
86,23:2
86,24:2
86,25:1
86,26:1
86,27:1
86,28:1
86,29:1
86,30:1
86,31:1
86,32:2
86,33:2
86,34:2
86,35:2
86,36:1
86,37:1
86,38:1
86,39:3
86,40:3
86,41:2
86,43:3
86,44:3
86,45:3
86,46:3
86,47:3
86,48:3
86,49:3
86,52:2
86,53:2
86,58:2
86,59:2
86,60:2
86,61:2
86,62:2
86,64:2
86,65:2
86,66:2
86,67:3
86,68:1
86,69:2
86,70:1
86,71:3
86,72:1
86,73:1
86,74:1
86,75:1
86,76:1
86,77:1
86,78:1
86,79:1
86,80:1
86,81:1
86,84:1
87,1:1
87,2:1
87,3:1
87,4:1
87,5:1
87,6:1
87,7:1
87,8:1
87,9:2
87,11:1
87,16:1
87,18:2
87,19:2
87,20:2
87,21:2
87,22:2
87,23:2
87,24:2
87,25:1
87,26:1
87,27:1
87,28:1
87,29:1
87,30:1
87,31:1
87,32:2
87,33:2
87,34:2
87,35:2
87,36:1
87,37:1
87,38:1
87,39:3
87,40:3
87,41:2
87,43:3
87,44:3
87,45:3
87,46:3
87,47:3
87,48:3
87,49:3
87,52:2
87,53:2
87,58:2
87,59:2
87,60:2
87,61:2
87,62:2
87,64:2
87,65:2
87,66:2
87,67:3
87,68:1
87,69:2
87,70:1
87,71:3
87,72:1
87,73:1
87,74:1
87,75:1
87,76:1
87,77:1
87,78:1
87,79:1
87,80:1
87,81:1
87,84:1
88,1:1
88,2:1
88,3:1
88,4:1
88,5:1
88,6:1
88,7:1
88,8:1
88,9:2
88,11:1
88,16:1
88,18:2
88,19:2
88,20:2
88,21:2
88,22:2
88,23:2
88,24:2
88,25:1
88,26:1
88,27:1
88,28:1
88,29:1
88,30:1
88,31:1
88,32:2
88,33:2
88,34:2
88,35:2
88,36:1
88,37:1
88,38:1
88,39:3
88,40:3
88,41:2
88,43:3
88,44:3
88,45:3
88,46:3
88,47:3
88,48:3
88,49:3
88,52:2
88,53:2
88,58:2
88,59:2
88,60:2
88,61:2
88,62:2
88,64:2
88,65:2
88,66:2
88,67:3
88,68:1
88,69:2
88,70:1
88,71:3
88,72:1
88,73:1
88,74:1
88,75:1
88,76:1
88,77:1
88,78:1
88,79:1
88,80:1
88,81:1
88,84:1
89,1:1
89,2:1
89,3:1
89,4:1
89,5:1
89,6:1
89,7:1
89,8:1
89,9:2
89,11:1
89,16:1
89,18:2
89,19:2
89,20:2
89,21:2
89,22:2
89,23:2
89,24:2
89,25:1
89,26:1
89,27:1
89,28:1
89,29:1
89,30:1
89,31:1
89,32:2
89,33:2
89,34:2
89,35:2
89,36:1
89,37:1
89,38:1
89,39:3
89,40:3
89,41:2
89,43:3
89,44:3
89,45:3
89,46:3
89,47:3
89,48:3
89,49:3
89,52:2
89,53:2
89,58:2
89,59:2
89,60:2
89,61:2
89,62:2
89,64:2
89,65:2
89,66:2
89,67:3
89,68:1
89,69:2
89,70:1
89,71:3
89,72:1
89,73:1
89,74:1
89,75:1
89,76:1
89,77:1
89,78:1
89,79:1
89,80:1
89,81:1
89,84:1

<end>

<optimal SALBP-1 value>
14


<rand seed>
467321153

<Lower Bounds>
Lm1=13
Lms1=13
Lm2=2
Lm3=2
Lm4=13
Best=13

<Optimal Stations (Iterations: 10)>
15
